c Arquivo convertido de bcspwr06.mtx
p edge 1454 1923
e 1 2
e 1 613
e 2 391
e 3 5
e 4 5
e 4 130
e 4 201
e 5 6
e 7 89
e 7 130
e 8 9
e 9 10
e 10 11
e 10 12
e 10 28
e 10 74
e 11 132
e 13 98
e 13 200
e 14 15
e 14 186
e 15 16
e 15 132
e 16 196
e 17 75
e 17 88
e 17 119
e 17 135
e 18 67
e 18 135
e 19 89
e 19 127
e 19 133
e 19 146
e 20 42
e 20 138
e 21 50
e 21 98
e 22 23
e 23 24
e 23 92
e 24 25
e 24 62
e 24 152
e 24 153
e 25 162
e 26 27
e 26 47
e 26 118
e 27 119
e 28 34
e 29 92
e 29 199
e 30 31
e 30 32
e 30 33
e 31 33
e 31 43
e 31 74
e 31 129
e 31 137
e 33 103
e 34 120
e 35 69
e 35 96
e 35 181
e 36 37
e 37 76
e 37 100
e 37 136
e 38 39
e 38 40
e 38 84
e 38 192
e 41 47
e 41 77
e 41 148
e 42 135
e 43 44
e 44 163
e 45 69
e 45 201
e 46 47
e 47 48
e 47 49
e 47 77
e 47 118
e 48 119
e 48 150
e 50 163
e 51 54
e 51 55
e 51 114
e 51 183
e 51 194
e 52 55
e 53 55
e 56 61
e 57 61
e 58 61
e 59 62
e 60 63
e 61 62
e 61 64
e 61 514
e 61 1331
e 62 63
e 62 558
e 62 572
e 62 1403
e 63 106
e 65 80
e 65 107
e 66 67
e 66 207
e 67 88
e 68 93
e 70 71
e 70 80
e 70 110
e 70 182
e 71 187
e 72 73
e 72 197
e 72 524
e 73 99
e 74 108
e 75 135
e 76 156
e 78 79
e 79 100
e 79 463
e 80 81
e 80 82
e 80 110
e 80 159
e 83 84
e 83 86
e 83 121
e 83 174
e 83 190
e 83 194
e 84 85
e 87 131
e 88 150
e 89 90
e 89 133
e 89 169
e 90 91
e 93 95
e 93 130
e 93 201
e 94 95
e 94 101
e 96 127
e 96 139
e 97 165
e 97 186
e 97 189
e 98 137
e 98 173
e 99 558
e 99 574
e 100 101
e 100 451
e 100 458
e 100 1207
e 102 103
e 102 104
e 103 145
e 103 187
e 105 144
e 105 147
e 106 111
e 106 202
e 106 1175
e 107 144
e 107 159
e 108 155
e 109 110
e 111 112
e 111 113
e 111 202
e 111 354
e 114 117
e 114 157
e 115 117
e 116 117
e 118 119
e 120 189
e 121 124
e 121 157
e 121 167
e 121 168
e 121 190
e 122 124
e 123 124
e 125 144
e 125 188
e 126 128
e 127 128
e 127 151
e 127 173
e 129 165
e 129 172
e 129 189
e 131 132
e 134 135
e 135 136
e 136 1181
e 137 138
e 138 142
e 138 143
e 139 141
e 140 142
e 141 142
e 141 143
e 145 146
e 145 151
e 145 154
e 145 201
e 145 1325
e 146 151
e 146 187
e 146 201
e 147 182
e 148 149
e 148 150
e 150 205
e 151 152
e 151 153
e 151 181
e 154 156
e 154 199
e 155 182
e 157 158
e 159 160
e 161 165
e 161 185
e 162 163
e 162 165
e 163 164
e 163 167
e 163 172
e 165 166
e 165 168
e 169 170
e 169 187
e 170 171
e 173 185
e 174 179
e 174 180
e 175 179
e 175 196
e 175 203
e 176 180
e 177 180
e 178 179
e 182 188
e 183 184
e 183 194
e 190 193
e 191 193
e 192 193
e 194 198
e 195 198
e 196 197
e 196 198
e 201 202
e 202 203
e 204 205
e 204 206
e 204 207
e 208 209
e 208 278
e 209 241
e 209 252
e 210 247
e 210 267
e 210 277
e 211 216
e 211 242
e 212 272
e 212 285
e 213 239
e 213 257
e 214 218
e 214 265
e 215 216
e 215 223
e 215 249
e 216 217
e 218 257
e 218 261
e 218 281
e 219 241
e 219 252
e 220 252
e 220 265
e 221 222
e 221 223
e 223 225
e 223 281
e 224 253
e 224 263
e 225 281
e 226 244
e 226 274
e 227 235
e 227 237
e 227 278
e 228 229
e 228 244
e 228 278
e 230 286
e 231 232
e 231 233
e 231 234
e 231 286
e 235 237
e 235 245
e 235 278
e 236 266
e 236 270
e 237 278
e 238 239
e 238 254
e 239 281
e 240 241
e 240 254
e 241 242
e 241 243
e 241 256
e 241 282
e 243 250
e 243 258
e 243 268
e 243 643
e 244 278
e 245 246
e 247 248
e 247 264
e 247 1445
e 249 250
e 249 251
e 249 271
e 249 272
e 250 258
e 250 286
e 253 264
e 253 1430
e 254 255
e 256 261
e 257 258
e 257 261
e 257 265
e 257 269
e 258 268
e 259 260
e 260 268
e 262 263
e 264 604
e 266 267
e 267 268
e 269 282
e 270 271
e 270 273
e 273 276
e 274 275
e 276 277
e 276 283
e 276 1435
e 277 1436
e 278 279
e 279 280
e 283 284
e 283 1441
e 285 286
e 285 287
e 288 289
e 288 290
e 288 315
e 288 327
e 288 328
e 289 298
e 289 326
e 290 291
e 290 300
e 290 309
e 290 328
e 290 1389
e 292 329
e 293 334
e 293 1378
e 294 318
e 295 296
e 296 297
e 296 299
e 296 311
e 296 329
e 297 305
e 297 308
e 297 325
e 298 300
e 298 302
e 299 307
e 299 337
e 300 320
e 300 1354
e 300 1420
e 301 302
e 301 1021
e 302 303
e 302 304
e 302 321
e 302 1376
e 305 306
e 305 312
e 305 332
e 305 336
e 307 308
e 307 330
e 309 310
e 309 320
e 309 334
e 311 330
e 312 313
e 312 665
e 314 335
e 314 682
e 315 316
e 315 317
e 315 327
e 315 339
e 316 325
e 318 319
e 318 324
e 318 329
e 318 339
e 318 340
e 320 321
e 321 1376
e 322 323
e 322 336
e 323 792
e 325 326
e 329 337
e 330 331
e 330 335
e 332 333
e 332 711
e 335 336
e 337 338
e 341 342
e 341 356
e 341 363
e 341 391
e 343 352
e 343 370
e 343 376
e 344 352
e 345 346
e 345 375
e 347 388
e 348 349
e 348 364
e 348 369
e 348 377
e 348 379
e 350 351
e 350 353
e 350 396
e 352 374
e 353 354
e 353 459
e 354 397
e 354 1175
e 355 356
e 355 361
e 355 362
e 356 363
e 357 358
e 357 363
e 359 361
e 360 362
e 361 362
e 363 377
e 363 384
e 363 391
e 363 393
e 364 369
e 364 379
e 365 368
e 365 387
e 366 367
e 366 385
e 369 380
e 370 371
e 370 372
e 370 373
e 370 374
e 371 396
e 372 379
e 373 396
e 374 375
e 374 388
e 376 381
e 376 386
e 376 387
e 377 378
e 377 380
e 377 382
e 377 393
e 378 397
e 379 380
e 381 383
e 382 383
e 383 392
e 384 390
e 385 386
e 385 390
e 386 389
e 389 390
e 391 1229
e 392 393
e 392 394
e 392 395
e 396 397
e 397 1203
e 398 399
e 398 407
e 398 416
e 399 408
e 399 411
e 399 417
e 400 401
e 400 404
e 402 403
e 402 412
e 402 426
e 403 404
e 403 413
e 403 424
e 403 442
e 404 417
e 404 440
e 404 687
e 404 1354
e 405 427
e 406 407
e 406 408
e 406 409
e 406 423
e 407 1031
e 408 411
e 408 421
e 408 1032
e 410 411
e 410 431
e 411 421
e 411 430
e 412 413
e 412 415
e 412 425
e 413 446
e 414 415
e 415 427
e 416 417
e 416 424
e 416 446
e 418 427
e 419 421
e 420 421
e 422 428
e 422 1339
e 424 434
e 425 431
e 425 432
e 425 446
e 426 432
e 426 438
e 427 428
e 427 429
e 427 430
e 427 431
e 427 432
e 427 439
e 427 441
e 427 443
e 429 1344
e 430 440
e 432 433
e 434 1387
e 435 436
e 435 437
e 435 444
e 435 697
e 436 442
e 438 442
e 438 444
e 440 687
e 444 445
e 444 608
e 447 492
e 447 499
e 448 468
e 448 479
e 449 450
e 449 472
e 449 477
e 449 478
e 450 455
e 450 483
e 451 454
e 451 498
e 452 467
e 452 500
e 453 477
e 453 501
e 454 465
e 454 480
e 454 481
e 454 482
e 454 501
e 455 456
e 455 457
e 455 459
e 455 493
e 456 500
e 458 460
e 458 470
e 458 494
e 458 497
e 460 471
e 461 480
e 461 493
e 461 497
e 462 469
e 462 472
e 463 464
e 463 498
e 465 466
e 465 501
e 467 473
e 468 473
e 469 492
e 470 499
e 471 491
e 472 490
e 474 486
e 474 496
e 475 476
e 475 477
e 475 496
e 476 483
e 476 492
e 478 484
e 479 498
e 481 491
e 482 490
e 483 485
e 483 500
e 484 501
e 485 487
e 485 488
e 485 489
e 486 499
e 490 501
e 491 493
e 494 499
e 495 501
e 499 500
e 502 517
e 503 504
e 503 535
e 503 570
e 503 573
e 505 506
e 505 570
e 505 574
e 506 545
e 506 571
e 507 508
e 507 527
e 507 531
e 508 532
e 508 572
e 509 510
e 509 525
e 509 544
e 509 556
e 510 512
e 510 526
e 510 557
e 511 512
e 511 518
e 512 531
e 512 557
e 513 565
e 513 570
e 514 545
e 515 516
e 515 523
e 515 529
e 516 517
e 516 519
e 517 519
e 517 527
e 518 531
e 518 556
e 519 565
e 520 549
e 520 550
e 520 559
e 521 528
e 521 535
e 521 550
e 522 535
e 522 536
e 522 566
e 523 524
e 523 529
e 525 526
e 525 561
e 526 531
e 526 569
e 527 557
e 529 530
e 531 532
e 531 533
e 531 534
e 531 556
e 531 557
e 531 569
e 535 576
e 536 537
e 537 558
e 538 539
e 538 540
e 538 541
e 539 542
e 539 543
e 539 559
e 539 570
e 544 561
e 546 547
e 546 548
e 547 549
e 547 570
e 549 552
e 549 570
e 549 576
e 550 551
e 550 570
e 553 556
e 554 556
e 555 557
e 556 557
e 558 563
e 558 564
e 558 572
e 559 560
e 560 572
e 561 562
e 562 569
e 566 567
e 567 568
e 567 576
e 570 571
e 570 572
e 575 576
e 575 577
e 578 740
e 578 836
e 579 595
e 579 835
e 580 581
e 580 589
e 580 714
e 580 819
e 581 699
e 581 760
e 582 583
e 582 584
e 582 656
e 582 666
e 582 701
e 582 796
e 583 726
e 584 652
e 584 656
e 585 668
e 585 735
e 585 780
e 586 587
e 586 591
e 586 703
e 586 767
e 586 774
e 587 592
e 587 594
e 587 775
e 588 589
e 589 590
e 591 592
e 591 631
e 592 632
e 592 641
e 592 750
e 592 794
e 592 834
e 593 642
e 593 799
e 594 745
e 594 764
e 595 668
e 595 739
e 595 798
e 596 618
e 596 670
e 596 741
e 596 789
e 596 796
e 597 598
e 597 644
e 598 599
e 598 613
e 598 618
e 598 645
e 598 646
e 598 647
e 598 683
e 598 728
e 598 733
e 598 740
e 598 820
e 599 695
e 600 648
e 600 736
e 601 602
e 601 786
e 601 803
e 601 820
e 603 653
e 603 804
e 603 806
e 604 605
e 604 641
e 604 794
e 604 1448
e 606 607
e 606 630
e 606 700
e 608 763
e 609 610
e 609 750
e 609 775
e 611 652
e 611 670
e 612 785
e 612 837
e 614 760
e 615 714
e 615 729
e 615 746
e 615 753
e 615 815
e 616 617
e 617 784
e 619 620
e 619 621
e 619 622
e 619 632
e 619 804
e 620 623
e 620 633
e 620 743
e 620 802
e 624 700
e 624 762
e 625 689
e 625 697
e 626 627
e 626 748
e 626 824
e 627 632
e 627 637
e 627 732
e 627 785
e 627 825
e 628 667
e 628 690
e 628 705
e 629 630
e 630 713
e 631 632
e 631 634
e 632 633
e 632 635
e 632 740
e 632 753
e 632 768
e 632 834
e 633 636
e 633 680
e 633 776
e 637 638
e 637 639
e 637 659
e 637 724
e 637 807
e 637 813
e 637 815
e 637 837
e 638 776
e 639 776
e 640 815
e 640 816
e 642 643
e 643 743
e 648 728
e 649 655
e 649 773
e 650 711
e 650 829
e 651 659
e 651 807
e 653 654
e 653 673
e 653 787
e 655 656
e 656 671
e 656 681
e 656 779
e 657 658
e 658 785
e 658 802
e 658 832
e 659 664
e 659 724
e 660 661
e 660 663
e 661 662
e 661 663
e 662 756
e 663 685
e 663 688
e 664 807
e 665 829
e 666 779
e 667 687
e 668 669
e 668 692
e 668 828
e 669 736
e 671 676
e 672 673
e 673 804
e 674 739
e 674 758
e 674 780
e 675 676
e 675 838
e 676 812
e 677 707
e 677 733
e 677 820
e 678 695
e 678 721
e 678 790
e 679 680
e 680 695
e 680 718
e 680 757
e 680 826
e 681 812
e 682 777
e 683 686
e 684 685
e 684 711
e 684 745
e 685 716
e 686 736
e 687 688
e 687 750
e 689 691
e 690 691
e 692 693
e 692 694
e 695 696
e 695 718
e 695 726
e 695 757
e 698 699
e 698 781
e 698 809
e 699 755
e 700 722
e 701 702
e 702 726
e 703 744
e 703 763
e 704 714
e 704 839
e 705 706
e 705 750
e 707 820
e 708 709
e 708 716
e 708 718
e 710 711
e 710 756
e 712 713
e 712 715
e 712 838
e 713 812
e 715 773
e 716 717
e 718 719
e 720 722
e 720 723
e 721 723
e 721 970
e 724 725
e 724 727
e 724 785
e 724 795
e 724 806
e 724 817
e 725 743
e 725 776
e 726 755
e 726 797
e 727 807
e 728 778
e 729 730
e 729 746
e 731 782
e 731 784
e 731 824
e 732 785
e 733 734
e 733 741
e 733 801
e 734 757
e 735 736
e 735 737
e 736 738
e 736 786
e 736 792
e 736 796
e 736 829
e 739 740
e 739 748
e 739 798
e 740 759
e 740 768
e 740 769
e 740 771
e 740 823
e 740 825
e 742 743
e 742 800
e 742 805
e 744 745
e 744 756
e 746 747
e 748 822
e 749 799
e 749 804
e 750 751
e 750 764
e 752 817
e 753 754
e 753 816
e 754 760
e 755 757
e 757 821
e 758 759
e 758 822
e 760 776
e 761 789
e 762 778
e 763 764
e 763 774
e 765 766
e 765 822
e 766 823
e 766 825
e 767 774
e 769 770
e 769 825
e 771 772
e 774 775
e 776 802
e 776 814
e 776 826
e 777 778
e 778 789
e 780 835
e 781 786
e 781 819
e 783 785
e 784 785
e 785 793
e 786 803
e 786 808
e 786 839
e 787 788
e 789 790
e 789 791
e 795 805
e 796 797
e 799 800
e 800 804
e 801 809
e 805 806
e 807 817
e 809 819
e 810 811
e 810 839
e 813 814
e 816 837
e 818 819
e 820 821
e 822 823
e 825 826
e 825 829
e 825 830
e 825 831
e 827 828
e 827 829
e 832 833
e 835 836
e 840 915
e 840 971
e 841 964
e 841 993
e 842 888
e 842 922
e 843 852
e 843 897
e 844 928
e 844 991
e 845 846
e 846 857
e 846 979
e 847 851
e 847 881
e 847 966
e 847 981
e 847 985
e 847 994
e 847 998
e 848 942
e 848 964
e 849 897
e 849 998
e 850 851
e 850 993
e 851 965
e 852 888
e 853 854
e 854 894
e 854 903
e 854 997
e 855 857
e 856 857
e 858 928
e 858 973
e 859 868
e 859 991
e 860 891
e 861 994
e 862 937
e 862 944
e 863 864
e 864 943
e 864 965
e 865 866
e 865 991
e 866 882
e 866 890
e 866 909
e 866 946
e 866 969
e 866 975
e 866 987
e 866 991
e 867 965
e 868 869
e 868 871
e 868 914
e 868 939
e 868 991
e 869 870
e 869 939
e 869 981
e 872 873
e 872 874
e 872 889
e 872 923
e 875 876
e 875 1143
e 876 953
e 876 964
e 876 1141
e 876 1142
e 877 912
e 877 944
e 878 915
e 878 971
e 879 940
e 879 964
e 880 881
e 881 985
e 882 885
e 882 898
e 882 909
e 882 987
e 883 952
e 883 972
e 884 885
e 884 886
e 884 891
e 885 887
e 888 889
e 888 893
e 888 896
e 888 931
e 888 944
e 889 913
e 889 923
e 890 991
e 891 892
e 891 953
e 892 894
e 892 941
e 892 962
e 893 922
e 894 954
e 894 981
e 894 997
e 895 944
e 895 960
e 896 917
e 897 906
e 897 994
e 898 965
e 898 987
e 899 900
e 899 979
e 899 984
e 901 976
e 901 991
e 902 903
e 903 997
e 904 948
e 905 909
e 906 960
e 907 922
e 908 909
e 909 975
e 909 988
e 910 917
e 911 989
e 911 991
e 912 913
e 912 944
e 912 990
e 913 923
e 913 938
e 913 982
e 914 939
e 915 916
e 915 924
e 916 972
e 917 960
e 918 919
e 918 926
e 918 937
e 918 939
e 919 938
e 919 982
e 920 921
e 921 962
e 922 923
e 922 931
e 923 1236
e 924 971
e 925 981
e 925 990
e 927 982
e 927 992
e 928 952
e 928 972
e 928 976
e 929 931
e 930 931
e 932 933
e 932 936
e 932 937
e 934 937
e 935 938
e 936 937
e 937 938
e 937 944
e 939 972
e 939 981
e 940 942
e 941 965
e 942 943
e 942 945
e 943 979
e 945 964
e 946 969
e 947 948
e 948 969
e 949 969
e 950 969
e 951 952
e 951 955
e 952 956
e 952 957
e 952 958
e 952 959
e 952 973
e 952 976
e 952 981
e 954 997
e 961 962
e 963 972
e 963 981
e 964 965
e 965 966
e 965 968
e 965 979
e 966 967
e 966 977
e 966 995
e 969 970
e 970 980
e 971 972
e 974 975
e 975 987
e 977 981
e 978 979
e 979 980
e 979 984
e 980 982
e 980 992
e 981 982
e 981 987
e 981 995
e 983 984
e 985 986
e 989 991
e 991 992
e 996 997
e 999 1024
e 999 1030
e 1000 1028
e 1000 1393
e 1001 1016
e 1001 1025
e 1001 1029
e 1002 1004
e 1002 1253
e 1003 1005
e 1003 1017
e 1003 1023
e 1004 1005
e 1004 1006
e 1004 1258
e 1005 1007
e 1005 1008
e 1005 1018
e 1005 1285
e 1009 1024
e 1009 1306
e 1010 1011
e 1010 1032
e 1011 1019
e 1012 1025
e 1012 1032
e 1013 1019
e 1013 1027
e 1014 1024
e 1014 1028
e 1015 1022
e 1015 1285
e 1016 1017
e 1018 1020
e 1020 1021
e 1021 1024
e 1022 1026
e 1023 1027
e 1023 1030
e 1026 1029
e 1027 1287
e 1031 1032
e 1032 1353
e 1033 1075
e 1034 1086
e 1035 1063
e 1035 1069
e 1036 1082
e 1036 1243
e 1036 1292
e 1037 1038
e 1037 1065
e 1037 1072
e 1038 1056
e 1038 1067
e 1039 1041
e 1039 1074
e 1040 1041
e 1041 1060
e 1041 1068
e 1042 1043
e 1043 1079
e 1044 1075
e 1044 1076
e 1045 1046
e 1045 1048
e 1045 1049
e 1045 1050
e 1045 1061
e 1045 1077
e 1045 1083
e 1045 1249
e 1047 1048
e 1048 1078
e 1048 1080
e 1051 1059
e 1051 1069
e 1051 1262
e 1052 1053
e 1052 1054
e 1052 1071
e 1054 1058
e 1054 1073
e 1055 1056
e 1055 1076
e 1056 1057
e 1056 1073
e 1058 1070
e 1058 1073
e 1058 1080
e 1058 1086
e 1059 1060
e 1059 1074
e 1061 1062
e 1061 1083
e 1062 1087
e 1063 1064
e 1064 1070
e 1064 1079
e 1065 1066
e 1066 1067
e 1068 1078
e 1068 1085
e 1068 1086
e 1069 1070
e 1069 1075
e 1071 1073
e 1072 1073
e 1072 1076
e 1073 1272
e 1073 1326
e 1075 1313
e 1077 1078
e 1077 1083
e 1077 1089
e 1079 1299
e 1079 1302
e 1080 1082
e 1081 1082
e 1082 1085
e 1082 1088
e 1083 1084
e 1083 1249
e 1087 1088
e 1087 1274
e 1087 1279
e 1088 1242
e 1090 1091
e 1090 1093
e 1091 1105
e 1092 1100
e 1092 1105
e 1093 1094
e 1093 1095
e 1093 1097
e 1093 1099
e 1093 1107
e 1093 1108
e 1093 1110
e 1096 1097
e 1096 1098
e 1096 1099
e 1098 1106
e 1100 1104
e 1101 1102
e 1101 1103
e 1101 1109
e 1102 1114
e 1103 1114
e 1104 1114
e 1105 1106
e 1105 1107
e 1105 1114
e 1106 1231
e 1109 1111
e 1110 1112
e 1112 1231
e 1113 1114
e 1113 1115
e 1114 1116
e 1114 1117
e 1114 1118
e 1119 1130
e 1119 1134
e 1120 1121
e 1120 1125
e 1120 1129
e 1120 1132
e 1120 1145
e 1121 1129
e 1122 1123
e 1122 1154
e 1123 1136
e 1123 1137
e 1123 1141
e 1123 1142
e 1124 1125
e 1125 1136
e 1126 1129
e 1127 1129
e 1128 1129
e 1128 1130
e 1129 1140
e 1131 1134
e 1131 1150
e 1133 1144
e 1133 1149
e 1135 1140
e 1135 1145
e 1136 1140
e 1137 1152
e 1138 1155
e 1139 1145
e 1139 1152
e 1143 1149
e 1144 1149
e 1145 1146
e 1145 1147
e 1145 1148
e 1149 1153
e 1149 1155
e 1150 1402
e 1151 1152
e 1151 1155
e 1153 1154
e 1154 1155
e 1156 1159
e 1157 1158
e 1158 1162
e 1158 1166
e 1159 1162
e 1159 1208
e 1160 1204
e 1160 1208
e 1160 1235
e 1161 1220
e 1161 1221
e 1162 1176
e 1162 1200
e 1162 1234
e 1163 1164
e 1164 1204
e 1164 1222
e 1164 1228
e 1165 1181
e 1165 1193
e 1165 1207
e 1166 1168
e 1166 1208
e 1166 1216
e 1167 1210
e 1167 1211
e 1167 1231
e 1167 1234
e 1168 1176
e 1168 1198
e 1168 1201
e 1169 1195
e 1169 1226
e 1169 1237
e 1170 1171
e 1171 1193
e 1171 1195
e 1172 1208
e 1172 1220
e 1172 1229
e 1173 1177
e 1173 1197
e 1173 1199
e 1174 1175
e 1174 1202
e 1174 1207
e 1175 1203
e 1175 1212
e 1176 1189
e 1176 1227
e 1177 1178
e 1179 1180
e 1179 1210
e 1179 1219
e 1179 1226
e 1179 1237
e 1182 1183
e 1182 1198
e 1183 1229
e 1183 1235
e 1184 1197
e 1184 1201
e 1185 1186
e 1186 1207
e 1187 1188
e 1188 1207
e 1189 1190
e 1189 1191
e 1192 1193
e 1194 1195
e 1196 1202
e 1197 1198
e 1197 1199
e 1197 1223
e 1198 1225
e 1200 1234
e 1201 1208
e 1201 1223
e 1202 1203
e 1203 1209
e 1203 1212
e 1203 1236
e 1204 1221
e 1204 1228
e 1204 1233
e 1205 1206
e 1206 1230
e 1208 1225
e 1208 1238
e 1209 1210
e 1209 1211
e 1210 1219
e 1210 1234
e 1210 1237
e 1211 1216
e 1211 1237
e 1211 1238
e 1212 1213
e 1212 1214
e 1215 1217
e 1215 1220
e 1215 1230
e 1216 1238
e 1217 1218
e 1220 1221
e 1220 1229
e 1220 1230
e 1220 1235
e 1222 1233
e 1223 1224
e 1225 1235
e 1226 1237
e 1227 1231
e 1227 1234
e 1231 1232
e 1235 1236
e 1239 1269
e 1239 1290
e 1240 1241
e 1240 1248
e 1240 1257
e 1240 1267
e 1241 1242
e 1241 1285
e 1241 1316
e 1242 1255
e 1243 1256
e 1243 1265
e 1243 1276
e 1243 1286
e 1243 1293
e 1244 1280
e 1244 1287
e 1245 1257
e 1245 1282
e 1246 1247
e 1246 1266
e 1247 1272
e 1248 1254
e 1248 1270
e 1248 1283
e 1249 1265
e 1249 1273
e 1250 1251
e 1250 1252
e 1251 1261
e 1252 1254
e 1252 1273
e 1252 1274
e 1253 1280
e 1253 1281
e 1254 1255
e 1254 1274
e 1256 1279
e 1257 1284
e 1258 1284
e 1259 1260
e 1259 1263
e 1259 1314
e 1260 1278
e 1261 1288
e 1262 1263
e 1262 1264
e 1264 1268
e 1266 1290
e 1267 1282
e 1268 1288
e 1270 1277
e 1271 1272
e 1271 1276
e 1273 1274
e 1275 1289
e 1275 1352
e 1277 1281
e 1281 1283
e 1282 1286
e 1284 1285
e 1285 1348
e 1287 1289
e 1290 1291
e 1290 1292
e 1290 1293
e 1294 1314
e 1294 1327
e 1294 1334
e 1295 1314
e 1295 1320
e 1296 1333
e 1296 1336
e 1297 1300
e 1297 1313
e 1297 1319
e 1298 1303
e 1298 1324
e 1299 1316
e 1300 1302
e 1300 1322
e 1301 1302
e 1302 1326
e 1302 1331
e 1303 1330
e 1304 1309
e 1304 1325
e 1305 1306
e 1306 1334
e 1307 1308
e 1307 1323
e 1308 1309
e 1308 1310
e 1308 1407
e 1309 1311
e 1312 1321
e 1312 1322
e 1314 1316
e 1315 1316
e 1316 1317
e 1316 1335
e 1318 1323
e 1318 1331
e 1320 1327
e 1320 1329
e 1321 1328
e 1322 1324
e 1328 1329
e 1330 1331
e 1332 1335
e 1334 1356
e 1335 1337
e 1336 1337
e 1338 1339
e 1339 1347
e 1340 1341
e 1340 1345
e 1342 1344
e 1342 1345
e 1343 1344
e 1343 1346
e 1346 1349
e 1347 1349
e 1350 1352
e 1351 1353
e 1352 1353
e 1354 1355
e 1355 1378
e 1356 1421
e 1357 1358
e 1357 1361
e 1357 1406
e 1357 1412
e 1357 1422
e 1358 1393
e 1358 1415
e 1359 1378
e 1359 1387
e 1360 1412
e 1360 1414
e 1361 1383
e 1362 1363
e 1362 1415
e 1363 1386
e 1363 1398
e 1363 1408
e 1363 1416
e 1364 1366
e 1365 1366
e 1366 1381
e 1366 1409
e 1366 1421
e 1367 1390
e 1367 1397
e 1368 1386
e 1368 1408
e 1369 1370
e 1369 1373
e 1369 1390
e 1369 1414
e 1370 1371
e 1370 1372
e 1370 1417
e 1374 1375
e 1374 1381
e 1374 1388
e 1376 1378
e 1377 1378
e 1377 1401
e 1377 1411
e 1378 1380
e 1378 1405
e 1378 1410
e 1379 1380
e 1379 1391
e 1379 1399
e 1379 1419
e 1381 1382
e 1381 1397
e 1381 1413
e 1383 1422
e 1384 1386
e 1385 1386
e 1386 1403
e 1388 1414
e 1389 1422
e 1390 1418
e 1392 1397
e 1392 1418
e 1393 1394
e 1393 1395
e 1393 1396
e 1393 1420
e 1397 1398
e 1398 1416
e 1399 1419
e 1400 1401
e 1401 1411
e 1402 1407
e 1404 1414
e 1404 1418
e 1405 1410
e 1406 1414
e 1407 1408
e 1409 1413
e 1414 1415
e 1414 1416
e 1414 1417
e 1414 1418
e 1419 1420
e 1419 1422
e 1423 1424
e 1423 1425
e 1424 1435
e 1425 1440
e 1426 1427
e 1426 1445
e 1426 1447
e 1426 1453
e 1428 1429
e 1429 1432
e 1429 1442
e 1431 1432
e 1431 1433
e 1434 1435
e 1434 1436
e 1437 1438
e 1438 1440
e 1438 1454
e 1439 1440
e 1441 1443
e 1442 1445
e 1443 1444
e 1445 1446
e 1445 1447
e 1447 1449
e 1448 1449
e 1448 1451
e 1449 1450
e 1451 1452
e 1451 1453
e 1453 1454
